10	5
0	6	3	1	6	2	4	7
1	0
2	1	10
3	2	5	8
4	1	10
5	1	9
6	0
7	1	5
8	1	9
9	1	10
10	1	11
11	0
0	0	0	0	0	0	0
1	8	0	0	1	0	0
2	7	5	5	2	0	0
3	4	2	0	0	0	0
4	10	4	0	0	2	0
5	10	2	1	2	5	5
6	7	3	1	0	2	0
7	10	0	2	0	4	0
8	7	0	0	0	0	3
9	7	3	4	3	3	0
10	2	0	0	4	5	4
11	0	0	0	0	0	0
10	7	5	7	5
